(set-logic HORN)
(declare-fun assert_171_24_1_abs01 (Int Int Int Int Int Int Int) Bool)
(declare-fun assign_147_23_1_abs01 (Int Int Int Int Int Int Int) Bool)
(declare-fun assign_126_20_5_abs01 (Int Int Int Int Int Int Int) Bool)
(declare-fun arrayassign_117_19_5_abs01 (Int Int Int Int Int Int Int) Bool)
(declare-fun while_129_18_1_abs01 (Int Int Int Int Int Int Int) Bool)
(declare-fun assign_89_17_1_abs01 (Int Int Int Int Int Int Int) Bool)
(declare-fun assign_80_14_5_abs01 (Int Int Int Int Int Int Int) Bool)
(declare-fun arrayassign_71_13_5_abs01 (Int Int Int Int Int Int Int) Bool)
(declare-fun while_83_12_1_abs01 (Int Int Int Int Int Int Int) Bool)
(declare-fun assign_49_10_1_abs01 (Int Int Int Int Int Int Int) Bool)
(declare-fun assign_37_9_1_abs01 (Int Int Int Int Int Int Int) Bool)
(declare-fun end_abs01 (Int Int Int Int Int Int Int) Bool)
(declare-fun start_abs01 (Int Int Int Int Int Int Int) Bool)
(assert (forall ((a_copy (Array Int Int)) (a (Array Int Int)) (size Int) (k Int) (i Int) (vabs_f_f Int) (vabs_s_f_f Int)) (start_abs01 vabs_f_f (select a_copy vabs_f_f) vabs_s_f_f (select a vabs_s_f_f) size k i)))
(assert (forall ((i Int) (k Int) (size Int) (a (Array Int Int)) (a_copy (Array Int Int)) (vabs_0_f_f Int) (vabs_0_s_f_f Int)) (=> (start_abs01 vabs_0_f_f (select a_copy vabs_0_f_f) vabs_0_s_f_f (select a vabs_0_s_f_f) size k i) (assign_37_9_1_abs01 vabs_0_f_f (select a_copy vabs_0_f_f) vabs_0_s_f_f (select a vabs_0_s_f_f) size k i))))
(assert (forall ((i Int) (k Int) (size Int) (a (Array Int Int)) (a_copy (Array Int Int)) (vabs_0_f_f Int) (vabs_0_s_f_f Int)) (=> (assign_37_9_1_abs01 vabs_0_f_f (select a_copy vabs_0_f_f) vabs_0_s_f_f (select a vabs_0_s_f_f) size k i) (assign_49_10_1_abs01 vabs_0_f_f (select a_copy vabs_0_f_f) vabs_0_s_f_f (select a vabs_0_s_f_f) size k 0))))
(assert (forall ((rnd Int) (i Int) (k Int) (size Int) (a (Array Int Int)) (a_copy (Array Int Int)) (vabs_0_f_f Int) (vabs_0_s_f_f Int)) (=> (assign_49_10_1_abs01 vabs_0_f_f (select a_copy vabs_0_f_f) vabs_0_s_f_f (select a vabs_0_s_f_f) size k i) (while_83_12_1_abs01 vabs_0_f_f (select a_copy vabs_0_f_f) vabs_0_s_f_f (select a vabs_0_s_f_f) rnd k i))))
(assert (forall ((a_copy (Array Int Int)) (a (Array Int Int)) (size Int) (k Int) (i Int) (vabs_0_f_f Int) (vabs_0_s_f_f Int)) (=> (and (while_83_12_1_abs01 vabs_0_f_f (select a_copy vabs_0_f_f) vabs_0_s_f_f (select a vabs_0_s_f_f) size k i) (< i size)) (arrayassign_71_13_5_abs01 vabs_0_f_f (select a_copy vabs_0_f_f) vabs_0_s_f_f (select a vabs_0_s_f_f) size k i))))
(assert (forall ((a_copy (Array Int Int)) (a (Array Int Int)) (size Int) (k Int) (i Int) (vabs_0_f_f Int) (vabs_0_s_f_f Int)) (=> (and (while_83_12_1_abs01 vabs_0_f_f (select a_copy vabs_0_f_f) vabs_0_s_f_f (select a vabs_0_s_f_f) size k i) (not (< i size))) (assign_89_17_1_abs01 vabs_0_f_f (select a_copy vabs_0_f_f) vabs_0_s_f_f (select a vabs_0_s_f_f) size k i))))
(assert (forall ((i Int) (k Int) (size Int) (a (Array Int Int)) (a_copy (Array Int Int)) (vabs_0_f_f Int) (vabs_0_s_f_f Int)) (=> (and (arrayassign_71_13_5_abs01 vabs_0_f_f (select a_copy vabs_0_f_f) vabs_0_s_f_f (select a vabs_0_s_f_f) size k i) (arrayassign_71_13_5_abs01 vabs_0_f_f (select a_copy vabs_0_f_f) i (select a i) size k i)) (assign_80_14_5_abs01 vabs_0_f_f (select (store a_copy i (select a i)) vabs_0_f_f) vabs_0_s_f_f (select a vabs_0_s_f_f) size k i))))
(assert (forall ((i Int) (k Int) (size Int) (a (Array Int Int)) (a_copy (Array Int Int)) (vabs_0_f_f Int) (vabs_0_s_f_f Int)) (=> (assign_80_14_5_abs01 vabs_0_f_f (select a_copy vabs_0_f_f) vabs_0_s_f_f (select a vabs_0_s_f_f) size k i) (while_83_12_1_abs01 vabs_0_f_f (select a_copy vabs_0_f_f) vabs_0_s_f_f (select a vabs_0_s_f_f) size k (+ i 1)))))
(assert (forall ((i Int) (k Int) (size Int) (a (Array Int Int)) (a_copy (Array Int Int)) (vabs_0_f_f Int) (vabs_0_s_f_f Int)) (=> (assign_89_17_1_abs01 vabs_0_f_f (select a_copy vabs_0_f_f) vabs_0_s_f_f (select a vabs_0_s_f_f) size k i) (while_129_18_1_abs01 vabs_0_f_f (select a_copy vabs_0_f_f) vabs_0_s_f_f (select a vabs_0_s_f_f) size k 0))))
(assert (forall ((a_copy (Array Int Int)) (a (Array Int Int)) (size Int) (k Int) (i Int) (vabs_0_f_f Int) (vabs_0_s_f_f Int)) (=> (and (while_129_18_1_abs01 vabs_0_f_f (select a_copy vabs_0_f_f) vabs_0_s_f_f (select a vabs_0_s_f_f) size k i) (< i size)) (arrayassign_117_19_5_abs01 vabs_0_f_f (select a_copy vabs_0_f_f) vabs_0_s_f_f (select a vabs_0_s_f_f) size k i))))
(assert (forall ((a_copy (Array Int Int)) (a (Array Int Int)) (size Int) (k Int) (i Int) (vabs_0_f_f Int) (vabs_0_s_f_f Int)) (=> (and (while_129_18_1_abs01 vabs_0_f_f (select a_copy vabs_0_f_f) vabs_0_s_f_f (select a vabs_0_s_f_f) size k i) (not (< i size))) (assign_147_23_1_abs01 vabs_0_f_f (select a_copy vabs_0_f_f) vabs_0_s_f_f (select a vabs_0_s_f_f) size k i))))
(assert (forall ((i Int) (k Int) (size Int) (a (Array Int Int)) (a_copy (Array Int Int)) (vabs_0_f_f Int) (vabs_0_s_f_f Int)) (=> (and (arrayassign_117_19_5_abs01 (- (- size i) 1) (select a_copy (- (- size i) 1)) vabs_0_s_f_f (select a vabs_0_s_f_f) size k i) (arrayassign_117_19_5_abs01 vabs_0_f_f (select a_copy vabs_0_f_f) vabs_0_s_f_f (select a vabs_0_s_f_f) size k i)) (assign_126_20_5_abs01 vabs_0_f_f (select a_copy vabs_0_f_f) vabs_0_s_f_f (select (store a i (select a_copy (- (- size i) 1))) vabs_0_s_f_f) size k i))))
(assert (forall ((i Int) (k Int) (size Int) (a (Array Int Int)) (a_copy (Array Int Int)) (vabs_0_f_f Int) (vabs_0_s_f_f Int)) (=> (assign_126_20_5_abs01 vabs_0_f_f (select a_copy vabs_0_f_f) vabs_0_s_f_f (select a vabs_0_s_f_f) size k i) (while_129_18_1_abs01 vabs_0_f_f (select a_copy vabs_0_f_f) vabs_0_s_f_f (select a vabs_0_s_f_f) size k (+ i 1)))))
(assert (forall ((rnd Int) (a_copy (Array Int Int)) (a (Array Int Int)) (size Int) (k Int) (i Int) (vabs_0_f_f Int) (vabs_0_s_f_f Int)) (=> (and (assign_147_23_1_abs01 vabs_0_f_f (select a_copy vabs_0_f_f) vabs_0_s_f_f (select a vabs_0_s_f_f) size k i) (>= rnd 0) (< rnd (+ size 1))) (assert_171_24_1_abs01 vabs_0_f_f (select a_copy vabs_0_f_f) vabs_0_s_f_f (select a vabs_0_s_f_f) size rnd i))))
(assert (forall ((i Int) (k Int) (size Int) (a (Array Int Int)) (a_copy (Array Int Int))) (=> (assert_171_24_1_abs01 (- (- size 1) k) (select a_copy (- (- size 1) k)) k (select a k) size k i) (= (select a_copy (- (- size 1) k)) (select a k)))))
(assert (forall ((i Int) (k Int) (size Int) (a (Array Int Int)) (a_copy (Array Int Int)) (vabs_0_f_f Int) (vabs_0_s_f_f Int)) (=> (assert_171_24_1_abs01 vabs_0_f_f (select a_copy vabs_0_f_f) vabs_0_s_f_f (select a vabs_0_s_f_f) size k i) (end_abs01 vabs_0_f_f (select a_copy vabs_0_f_f) vabs_0_s_f_f (select a vabs_0_s_f_f) size k i))))
(check-sat)